competition
% Use this editor as a MiniZinc scratch book
int : n_work_sheets; % number of work sheets in the problem
int : m_activities; % number of activities in the problem
int : horizon; % maximum scheduling time horizon

set of int: work_sheets = 0..n_work_sheets-1; %index set used to later access the arrays
set of int: activities = 0..m_activities-1;
set of int: days = 0..horizon-1;

% it is assumed that activities that belong to the samne sheet are consecutive and that precedence is encoded by order !
array[work_sheets] of int: east; % when to start the sheet earliest
array[work_sheets] of int: last; % when to start latest
array[activities] of int: roads; % mapping form activities to roads
array[roads,day] of int: pertubation_cost ; % how much building on this day hurts; If this can be a funtion in minizinc make it so!

array[work_sheets] of var bool: g_k; % is worksheet k executed? This we will branch on
array[activities] of var bool: f_i; % is activiti i executed


array[work_sheets] of var int: t_w_k; % starting time of the worksheet, this we will branch on too
  


array[work_sheets] of int: sheet_to_first_act; % mapping of worksheet to first activitiy
array[work_sheets] of int: sheet_to_last_act; % mapping of worksheet to last activity
array[activities] of int: act_to_sheet; % mapping of activity to worksheet

array[activities] of var int: act_starting_times; % when do the activities start, the first activity of each sheet need to be constraint to be start at the same time as the sheet 
% all need to be constraint to be constarint against each other 

array[activities] of var int: act_ending_times %when do the activities end, this is populated by constraing
% ending times must be before the horizon

% CONSTRAINTS TO ADD%
vate
% Constrain activities to be active whenever their sheet is active

% constraint first activity of a work sheet to be at the same time as the starting time of the sheet 

% constarint the starting time of the work sheet to be between the start and the end IFF its  wokr sheets to be activned (reificatio)

% constarint mondratory work sheets to be active

% constraint worksheets to be in the reight order IFF they are active reification

% constraint the maximum number of roads the be blocked at the same time to be 

%constarint the work center capacity. The data structures for that are not even active jet

% constraint first activity of a worksheet to be at 0 if it is not activated ? Maybe if reification makes the search slow?

% constarint all activities of a sheet ( those between start and end ) to start after their predecessor ended

% define objective funtion and solve



